NAME          
ROWS
 N  OBJ
 L  c1
COLUMNS
    MARKER    'MARKER'                 'INTORG'
    x[1]      c1        629
    x[1]      OBJ       -708
    x[2]      c1        847
    x[2]      OBJ       -864
    x[3]      c1        684
    x[3]      OBJ       -753
    x[4]      c1        234
    x[4]      OBJ       -293
    x[5]      c1        881
    x[5]      OBJ       -918
    x[6]      c1        884
    x[6]      OBJ       -871
    x[7]      c1        397
    x[7]      OBJ       -331
    x[8]      c1        378
    x[8]      OBJ       -337
    x[9]      c1        21
    x[9]      OBJ       -103
    x[10]     c1        275
    x[10]     OBJ       -311
    x[11]     c1        12
    x[11]     OBJ       -76
    x[12]     c1        310
    x[12]     OBJ       -233
    x[13]     c1        203
    x[13]     OBJ       -103
    x[14]     c1        620
    x[14]     OBJ       -701
    x[15]     c1        380
    x[15]     OBJ       -438
    x[16]     c1        180
    x[16]     OBJ       -254
    x[17]     c1        358
    x[17]     OBJ       -319
    x[18]     c1        1044
    x[18]     OBJ       -995
    x[19]     c1        820
    x[19]     OBJ       -749
    x[20]     c1        386
    x[20]     OBJ       -367
    x[21]     c1        320
    x[21]     OBJ       -357
    x[22]     c1        123
    x[22]     OBJ       -173
    x[23]     c1        754
    x[23]     OBJ       -806
    x[24]     c1        613
    x[24]     OBJ       -516
    x[25]     c1        724
    x[25]     OBJ       -770
    x[26]     c1        595
    x[26]     OBJ       -521
    x[27]     c1        109
    x[27]     OBJ       -152
    x[28]     c1        830
    x[28]     OBJ       -829
    x[29]     c1        511
    x[29]     OBJ       -497
    x[30]     c1        783
    x[30]     OBJ       -690
RHS
    rhs       c1        7452
RANGES
BOUNDS
 BV bounds    x[1]
 BV bounds    x[2]
 BV bounds    x[3]
 BV bounds    x[4]
 BV bounds    x[5]
 BV bounds    x[6]
 BV bounds    x[7]
 BV bounds    x[8]
 BV bounds    x[9]
 BV bounds    x[10]
 BV bounds    x[11]
 BV bounds    x[12]
 BV bounds    x[13]
 BV bounds    x[14]
 BV bounds    x[15]
 BV bounds    x[16]
 BV bounds    x[17]
 BV bounds    x[18]
 BV bounds    x[19]
 BV bounds    x[20]
 BV bounds    x[21]
 BV bounds    x[22]
 BV bounds    x[23]
 BV bounds    x[24]
 BV bounds    x[25]
 BV bounds    x[26]
 BV bounds    x[27]
 BV bounds    x[28]
 BV bounds    x[29]
 BV bounds    x[30]
ENDATA
